GLPSOL: GLPK LP/MIP Solver, v4.55
Parameter(s) specified in the command line:
 --math alp_v2.mod --data airland5.dat --tmlim 3600 --memlim 2000 --output
 results5.txt
Reading model section from alp_v2.mod...
41 lines were read
Reading data section from airland5.dat...
airland5.dat:50: warning: final NL missing before end of file
50 lines were read
Generating cost...
Generating T_MINUS_X...
Generating X_MINUS_T...
Generating ALL_PLANES...
Generating TIME_WINDOWS...
Generating LANDING_WAIT...
Model has been successfully generated
GLPK Integer Optimizer, v4.55
631 rows, 440 columns, 2040 non-zeros
380 integer variables, all of which are binary
Preprocessing...
610 rows, 440 columns, 1980 non-zeros
380 integer variables, all of which are binary
Scaling...
 A: min|aij| =  1.000e+00  max|aij| =  8.490e+02  ratio =  8.490e+02
GM: min|aij| =  7.184e-02  max|aij| =  1.392e+01  ratio =  1.938e+02
EQ: min|aij| =  5.161e-03  max|aij| =  1.000e+00  ratio =  1.938e+02
2N: min|aij| =  2.930e-03  max|aij| =  1.623e+00  ratio =  5.540e+02
Constructing initial basis...
Size of triangular part is 610
Solving LP relaxation...
GLPK Simplex Optimizer, v4.55
610 rows, 440 columns, 1980 non-zeros
      0: obj =   0.000000000e+00  infeas =  1.208e+02 (0)
*   143: obj =   3.180000000e+03  infeas =  0.000e+00 (0)
*   155: obj =   0.000000000e+00  infeas =  0.000e+00 (0)
OPTIMAL LP SOLUTION FOUND
Integer optimization begins...
+   155: mip =     not found yet >=              -inf        (1; 0)
+  1166: >>>>>   1.626000000e+04 >=   5.900000000e+02  96.4% (381; 6)
+  3117: >>>>>   1.504000000e+04 >=   8.400000000e+02  94.4% (1062; 23)
+  5594: >>>>>   1.483000000e+04 >=   1.050000000e+03  92.9% (1960; 57)
+  5823: >>>>>   1.026000000e+04 >=   1.050000000e+03  89.8% (2037; 62)
+  9970: >>>>>   9.080000000e+03 >=   1.230000000e+03  86.5% (3371; 224)
+ 14455: >>>>>   8.400000000e+03 >=   1.350000000e+03  83.9% (4834; 341)
+ 14557: >>>>>   6.650000000e+03 >=   1.350000000e+03  79.7% (4741; 492)
+ 17882: >>>>>   6.560000000e+03 >=   1.410000000e+03  78.5% (5439; 1034)
+ 17928: >>>>>   4.310000000e+03 >=   1.410000000e+03  67.3% (5437; 1046)
+ 17966: >>>>>   3.550000000e+03 >=   1.410000000e+03  60.3% (4506; 2776)
+ 35651: mip =   3.550000000e+03 >=   1.660000000e+03  53.2% (7439; 4414)
+ 36217: >>>>>   3.490000000e+03 >=   1.680000000e+03  51.9% (7503; 4445)
+ 54585: mip =   3.490000000e+03 >=   1.800000000e+03  48.4% (10411; 5595)
+ 59535: >>>>>   3.250000000e+03 >=   1.840000000e+03  43.4% (11268; 5824)
+ 78303: mip =   3.250000000e+03 >=   1.950000000e+03  40.0% (11833; 9514)
+ 82320: >>>>>   3.190000000e+03 >=   1.960000000e+03  38.6% (12386; 9794)
+100532: mip =   3.190000000e+03 >=   2.040000000e+03  36.1% (13700; 11880)
+116871: mip =   3.190000000e+03 >=   2.100000000e+03  34.2% (15238; 13234)
+132273: mip =   3.190000000e+03 >=   2.160000000e+03  32.3% (16633; 14386)
+145390: mip =   3.190000000e+03 >=   2.200000000e+03  31.0% (17918; 15418)
+157476: mip =   3.190000000e+03 >=   2.230000000e+03  30.1% (18889; 16518)
+169225: mip =   3.190000000e+03 >=   2.270000000e+03  28.8% (19770; 17531)
+180952: mip =   3.190000000e+03 >=   2.300000000e+03  27.9% (20669; 18507)
Time used: 60.0 secs.  Memory used: 50.7 Mb.
+190616: mip =   3.190000000e+03 >=   2.320000000e+03  27.3% (21450; 19440)
+200165: mip =   3.190000000e+03 >=   2.340000000e+03  26.6% (21986; 20484)
+210817: mip =   3.190000000e+03 >=   2.370000000e+03  25.7% (22658; 21386)
+219665: mip =   3.190000000e+03 >=   2.390000000e+03  25.1% (23242; 22249)
+228144: mip =   3.190000000e+03 >=   2.400000000e+03  24.8% (23692; 23256)
+237138: mip =   3.190000000e+03 >=   2.420000000e+03  24.1% (24134; 24147)
+245681: mip =   3.190000000e+03 >=   2.430000000e+03  23.8% (24605; 24976)
+253801: mip =   3.190000000e+03 >=   2.460000000e+03  22.9% (24928; 25942)
+261318: mip =   3.190000000e+03 >=   2.470000000e+03  22.6% (25333; 26751)
+269323: mip =   3.190000000e+03 >=   2.490000000e+03  21.9% (25632; 27671)
+275782: mip =   3.190000000e+03 >=   2.500000000e+03  21.6% (25984; 28441)
+282370: mip =   3.190000000e+03 >=   2.510000000e+03  21.3% (26186; 29345)
Time used: 120.0 secs.  Memory used: 73.3 Mb.
+289366: mip =   3.190000000e+03 >=   2.520000000e+03  21.0% (26443; 30210)
+296388: mip =   3.190000000e+03 >=   2.530000000e+03  20.7% (26796; 30998)
+302757: mip =   3.190000000e+03 >=   2.540000000e+03  20.4% (26954; 31910)
+309582: mip =   3.190000000e+03 >=   2.550000000e+03  20.1% (27239; 32719)
+315432: mip =   3.190000000e+03 >=   2.560000000e+03  19.7% (27419; 33557)
+321622: mip =   3.190000000e+03 >=   2.570000000e+03  19.4% (27597; 34411)
+327367: mip =   3.190000000e+03 >=   2.580000000e+03  19.1% (27812; 35230)
+333891: mip =   3.190000000e+03 >=   2.590000000e+03  18.8% (28038; 35968)
+339914: mip =   3.190000000e+03 >=   2.600000000e+03  18.5% (28211; 36808)
+346181: mip =   3.190000000e+03 >=   2.610000000e+03  18.2% (28412; 37618)
+351760: mip =   3.190000000e+03 >=   2.610000000e+03  18.2% (28627; 38291)
+357365: mip =   3.190000000e+03 >=   2.630000000e+03  17.6% (28641; 39134)
Time used: 180.0 secs.  Memory used: 88.9 Mb.
+363808: mip =   3.190000000e+03 >=   2.640000000e+03  17.2% (28794; 39972)
+367848: mip =   3.190000000e+03 >=   2.640000000e+03  17.2% (28887; 40693)
+372345: mip =   3.190000000e+03 >=   2.640000000e+03  17.2% (29053; 41323)
+377321: mip =   3.190000000e+03 >=   2.650000000e+03  16.9% (29196; 41958)
+382877: mip =   3.190000000e+03 >=   2.660000000e+03  16.6% (29264; 42722)
+388805: mip =   3.190000000e+03 >=   2.670000000e+03  16.3% (29347; 43509)
+393721: mip =   3.190000000e+03 >=   2.670000000e+03  16.3% (29447; 44299)
+398534: mip =   3.190000000e+03 >=   2.680000000e+03  16.0% (29586; 44961)
+402750: mip =   3.190000000e+03 >=   2.680000000e+03  16.0% (29594; 45843)
+407399: mip =   3.190000000e+03 >=   2.690000000e+03  15.7% (29574; 46733)
+412705: mip =   3.190000000e+03 >=   2.700000000e+03  15.4% (29633; 47435)
+417884: mip =   3.190000000e+03 >=   2.700000000e+03  15.4% (29711; 48242)
Time used: 240.0 secs.  Memory used: 100.1 Mb.
+421983: mip =   3.190000000e+03 >=   2.700000000e+03  15.4% (29771; 49040)
+426868: mip =   3.190000000e+03 >=   2.710000000e+03  15.0% (29856; 49815)
+431230: mip =   3.190000000e+03 >=   2.710000000e+03  15.0% (29863; 50694)
+435447: mip =   3.190000000e+03 >=   2.720000000e+03  14.7% (29857; 51583)
+441688: mip =   3.190000000e+03 >=   2.730000000e+03  14.4% (29904; 52363)
+445853: mip =   3.190000000e+03 >=   2.730000000e+03  14.4% (29940; 53153)
+449959: mip =   3.190000000e+03 >=   2.730000000e+03  14.4% (30014; 53799)
+454035: mip =   3.190000000e+03 >=   2.740000000e+03  14.1% (29990; 54566)
+458096: mip =   3.190000000e+03 >=   2.750000000e+03  13.8% (29915; 55298)
+461770: mip =   3.190000000e+03 >=   2.750000000e+03  13.8% (29920; 56163)
+466816: mip =   3.190000000e+03 >=   2.760000000e+03  13.5% (29916; 57067)
+470009: mip =   3.190000000e+03 >=   2.760000000e+03  13.5% (29915; 57822)
Time used: 300.0 secs.  Memory used: 108.8 Mb.
+473611: mip =   3.190000000e+03 >=   2.760000000e+03  13.5% (29936; 58506)
+478555: mip =   3.190000000e+03 >=   2.770000000e+03  13.2% (29965; 59176)
+481473: mip =   3.190000000e+03 >=   2.770000000e+03  13.2% (29963; 59848)
+485363: mip =   3.190000000e+03 >=   2.780000000e+03  12.9% (29880; 60539)
+488013: mip =   3.190000000e+03 >=   2.780000000e+03  12.9% (29825; 61265)
+492439: mip =   3.190000000e+03 >=   2.790000000e+03  12.5% (29771; 61988)
+495991: mip =   3.190000000e+03 >=   2.790000000e+03  12.5% (29761; 62690)
+499019: mip =   3.190000000e+03 >=   2.790000000e+03  12.5% (29728; 63390)
+503045: mip =   3.190000000e+03 >=   2.800000000e+03  12.2% (29694; 64130)
+505573: mip =   3.190000000e+03 >=   2.800000000e+03  12.2% (29656; 64858)
+509111: mip =   3.190000000e+03 >=   2.810000000e+03  11.9% (29580; 65674)
+512077: mip =   3.190000000e+03 >=   2.810000000e+03  11.9% (29540; 66520)
Time used: 360.0 secs.  Memory used: 114.8 Mb.
+514754: mip =   3.190000000e+03 >=   2.810000000e+03  11.9% (29500; 67213)
+518810: mip =   3.190000000e+03 >=   2.820000000e+03  11.6% (29441; 67881)
+521934: mip =   3.190000000e+03 >=   2.820000000e+03  11.6% (29395; 68601)
+524320: mip =   3.190000000e+03 >=   2.820000000e+03  11.6% (29376; 69251)
+527270: mip =   3.190000000e+03 >=   2.820000000e+03  11.6% (29381; 69920)
+531803: mip =   3.190000000e+03 >=   2.830000000e+03  11.3% (29339; 70772)
+534228: mip =   3.190000000e+03 >=   2.830000000e+03  11.3% (29263; 71589)
+538199: mip =   3.190000000e+03 >=   2.840000000e+03  11.0% (29138; 72530)
+540884: mip =   3.190000000e+03 >=   2.840000000e+03  11.0% (29094; 73341)
+544332: mip =   3.190000000e+03 >=   2.850000000e+03  10.7% (28960; 74251)
+548556: mip =   3.190000000e+03 >=   2.850000000e+03  10.7% (28888; 75125)
+551393: mip =   3.190000000e+03 >=   2.850000000e+03  10.7% (28840; 75860)
Time used: 420.0 secs.  Memory used: 119.7 Mb.
+554485: mip =   3.190000000e+03 >=   2.850000000e+03  10.7% (28798; 76627)
+558291: mip =   3.190000000e+03 >=   2.860000000e+03  10.3% (28677; 77545)
+560420: mip =   3.190000000e+03 >=   2.860000000e+03  10.3% (28589; 78530)
+564345: mip =   3.190000000e+03 >=   2.870000000e+03  10.0% (28406; 79622)
+567000: mip =   3.190000000e+03 >=   2.870000000e+03  10.0% (28313; 80798)
+570719: mip =   3.190000000e+03 >=   2.880000000e+03   9.7% (28181; 81727)
+575300: mip =   3.190000000e+03 >=   2.880000000e+03   9.7% (28096; 82974)
+578006: mip =   3.190000000e+03 >=   2.880000000e+03   9.7% (28035; 83943)
+581777: mip =   3.190000000e+03 >=   2.880000000e+03   9.7% (27985; 84823)
+586334: mip =   3.190000000e+03 >=   2.890000000e+03   9.4% (27862; 85902)
+588896: mip =   3.190000000e+03 >=   2.890000000e+03   9.4% (27773; 86901)
+592318: mip =   3.190000000e+03 >=   2.900000000e+03   9.1% (27560; 87874)
Time used: 480.0 secs.  Memory used: 123.3 Mb.
+594696: mip =   3.190000000e+03 >=   2.900000000e+03   9.1% (27488; 88786)
+598008: mip =   3.190000000e+03 >=   2.910000000e+03   8.8% (27335; 89767)
+602195: mip =   3.190000000e+03 >=   2.910000000e+03   8.8% (27108; 91197)
+604773: mip =   3.190000000e+03 >=   2.910000000e+03   8.8% (27039; 92119)
+607167: mip =   3.190000000e+03 >=   2.910000000e+03   8.8% (26961; 93065)
+610305: mip =   3.190000000e+03 >=   2.910000000e+03   8.8% (26914; 93937)
+614377: mip =   3.190000000e+03 >=   2.920000000e+03   8.5% (26727; 95182)
+616717: mip =   3.190000000e+03 >=   2.920000000e+03   8.5% (26645; 96172)
+620837: mip =   3.190000000e+03 >=   2.930000000e+03   8.2% (26407; 97557)
+623949: mip =   3.190000000e+03 >=   2.930000000e+03   8.2% (26293; 98776)
+627033: mip =   3.190000000e+03 >=   2.930000000e+03   8.2% (26168; 99870)
+630863: mip =   3.190000000e+03 >=   2.940000000e+03   7.8% (25939; 101264)
Time used: 540.0 secs.  Memory used: 124.9 Mb.
+634465: mip =   3.190000000e+03 >=   2.940000000e+03   7.8% (25756; 102641)
+636843: mip =   3.190000000e+03 >=   2.940000000e+03   7.8% (25654; 103618)
+639965: mip =   3.190000000e+03 >=   2.940000000e+03   7.8% (25578; 104647)
+644152: mip =   3.190000000e+03 >=   2.950000000e+03   7.5% (25348; 106171)
+647076: mip =   3.190000000e+03 >=   2.950000000e+03   7.5% (25209; 107584)
+650439: mip =   3.190000000e+03 >=   2.960000000e+03   7.2% (24933; 108893)
+653684: mip =   3.190000000e+03 >=   2.960000000e+03   7.2% (24729; 110284)
+656170: mip =   3.190000000e+03 >=   2.960000000e+03   7.2% (24580; 111509)
+659298: mip =   3.190000000e+03 >=   2.970000000e+03   6.9% (24276; 113034)
+663177: mip =   3.190000000e+03 >=   2.970000000e+03   6.9% (24037; 114693)
+665924: mip =   3.190000000e+03 >=   2.970000000e+03   6.9% (23911; 115865)
+668792: mip =   3.190000000e+03 >=   2.970000000e+03   6.9% (23801; 116884)
Time used: 600.0 secs.  Memory used: 125.0 Mb.
+672752: mip =   3.190000000e+03 >=   2.980000000e+03   6.6% (23489; 118752)
+675451: mip =   3.190000000e+03 >=   2.980000000e+03   6.6% (23336; 120133)
+679695: mip =   3.190000000e+03 >=   2.990000000e+03   6.3% (22941; 122169)
+682978: mip =   3.190000000e+03 >=   2.990000000e+03   6.3% (22752; 123738)
+685884: mip =   3.190000000e+03 >=   2.990000000e+03   6.3% (22579; 124949)
+689533: mip =   3.190000000e+03 >=   3.000000000e+03   6.0% (22168; 127434)
+692467: mip =   3.190000000e+03 >=   3.000000000e+03   6.0% (21963; 128752)
+694774: mip =   3.190000000e+03 >=   3.000000000e+03   6.0% (21823; 129802)
+697894: mip =   3.190000000e+03 >=   3.000000000e+03   6.0% (21681; 131008)
+701541: mip =   3.190000000e+03 >=   3.010000000e+03   5.6% (21355; 133158)
+704286: mip =   3.190000000e+03 >=   3.010000000e+03   5.6% (21192; 134797)
+707134: mip =   3.190000000e+03 >=   3.010000000e+03   5.6% (20970; 136183)
Time used: 660.0 secs.  Memory used: 125.0 Mb.
+710773: mip =   3.190000000e+03 >=   3.020000000e+03   5.3% (20586; 138406)
+713513: mip =   3.190000000e+03 >=   3.020000000e+03   5.3% (20427; 139807)
+716777: mip =   3.190000000e+03 >=   3.030000000e+03   5.0% (20035; 141468)
+721501: mip =   3.190000000e+03 >=   3.030000000e+03   5.0% (19590; 144809)
+725160: mip =   3.190000000e+03 >=   3.030000000e+03   5.0% (19344; 147000)
+728797: mip =   3.190000000e+03 >=   3.030000000e+03   5.0% (19153; 148629)
+732697: mip =   3.190000000e+03 >=   3.040000000e+03   4.7% (18795; 151071)
+736238: mip =   3.190000000e+03 >=   3.040000000e+03   4.7% (18509; 153572)
+741140: mip =   3.190000000e+03 >=   3.050000000e+03   4.4% (17957; 156946)
+744780: mip =   3.190000000e+03 >=   3.050000000e+03   4.4% (17734; 159294)
+749606: mip =   3.190000000e+03 >=   3.060000000e+03   4.1% (17212; 162344)
+754856: mip =   3.190000000e+03 >=   3.060000000e+03   4.1% (16690; 166611)
Time used: 720.0 secs.  Memory used: 125.0 Mb.
+758693: mip =   3.190000000e+03 >=   3.060000000e+03   4.1% (16451; 168816)
+764475: mip =   3.190000000e+03 >=   3.070000000e+03   3.8% (15893; 172627)
+769250: mip =   3.190000000e+03 >=   3.070000000e+03   3.8% (15483; 175628)
+774608: mip =   3.190000000e+03 >=   3.080000000e+03   3.4% (14854; 179935)
+779576: mip =   3.190000000e+03 >=   3.090000000e+03   3.1% (14160; 184085)
+785824: mip =   3.190000000e+03 >=   3.090000000e+03   3.1% (13441; 190353)
+791145: mip =   3.190000000e+03 >=   3.090000000e+03   3.1% (13018; 193591)
+792178: >>>>>   3.100000000e+03 >=   3.100000000e+03 < 0.1% (12947; 194017)
+792178: mip =   3.100000000e+03 >=     tree is empty   0.0% (0; 283825)
INTEGER OPTIMAL SOLUTION FOUND
Time used:   755.1 secs
Memory used: 125.2 Mb (131279423 bytes)
Writing MIP solution to 'results5.txt'...

